
(set-logic ALL) 

(declare-datatype MyList ((Nil) (Cons (head Real) (tail MyList)) )) 
(declare-fun l0 () MyList) 
(declare-fun l1 () MyList) 
(declare-fun l2 () MyList) 
(declare-fun l3 () MyList) 
(declare-fun i0 () Real) 
(declare-fun i1 () Real) 
(assert (and (= l1 Nil) (= l0 Nil)) )
(assert (is-Nil l2) )
(assert (= l1 l0) )
(assert (and (= l3 Nil) (is-Nil Nil)) )
(assert (is-Cons l1) )
(assert (not (= l3 l0)) )
(assert (or (is-Nil l3) (is-Nil Nil)) )
(assert (not (is-Cons l3)) )
(check-sat)
